c SSAT file for PBN EPFL/random_control/ctrl_distill_EPFL/random_control/ctrl_miter written by probABC
p cnf 72 186
r 0.500000 1 0
r 0.500000 2 0
r 0.500000 3 0
r 0.500000 4 0
r 0.500000 5 0
r 0.500000 6 0
r 0.500000 7 0
r 0.125000 8 0
r 0.125000 9 0
r 0.125000 10 0
e 13 0
e 21 0
e 30 0
e 34 0
e 35 0
e 41 0
e 42 0
e 57 0
e 58 0
e 59 0
e 60 0
e 61 0
e 62 0
e 63 0
e 64 0
e 65 0
e 66 0
e 67 0
e 68 0
e 69 0
e 70 0
e 71 0
e 72 0
e 73 0
e 74 0
e 75 0
e 76 0
e 77 0
e 78 0
e 119 0
e 120 0
e 121 0
e 122 0
e 123 0
e 124 0
e 125 0
e 126 0
e 127 0
e 147 0
e 152 0
e 153 0
e 154 0
e 155 0
e 156 0
e 157 0
e 158 0
e 195 0
e 196 0
e 197 0
e 198 0
e 199 0
e 200 0
e 201 0
e 202 0
e 203 0
e 204 0
e 205 0
e 206 0
e 207 0
e 208 0
e 209 0
e 11 0
13 -4 -5 0
-13 4 0
-13 5 0
21 4 5 0
-21 -4 0
-21 -5 0
30 4 21 0
-30 -4 0
-30 -21 0
34 4 -5 0
-34 -4 0
-34 5 0
35 4 34 0
-35 -4 0
-35 -34 0
41 -4 13 0
-41 4 0
-41 -13 0
42 -1 41 0
-42 1 0
-42 -41 0
57 1 -4 0
-57 -1 0
-57 4 0
58 -5 -6 0
-58 5 0
-58 6 0
59 -57 -58 0
-59 57 0
-59 58 0
60 -4 7 0
-60 4 0
-60 -7 0
61 13 -60 0
-61 -13 0
-61 60 0
62 -4 6 0
-62 4 0
-62 -6 0
63 13 -62 0
-63 -13 0
-63 62 0
64 -4 -6 0
-64 4 0
-64 6 0
65 63 64 0
-65 -63 0
-65 -64 0
66 -7 65 0
-66 7 0
-66 -65 0
67 61 66 0
-67 -61 0
-67 -66 0
68 -1 67 0
-68 1 0
-68 -67 0
69 59 68 0
-69 -59 0
-69 -68 0
70 -2 69 0
-70 2 0
-70 -69 0
71 3 70 0
-71 -3 0
-71 -70 0
72 -1 30 0
-72 1 0
-72 -30 0
73 -1 72 0
-73 1 0
-73 -72 0
74 -3 73 0
-74 3 0
-74 -73 0
75 -8 74 0
-75 8 0
-75 -74 0
76 8 -74 0
-76 -8 0
-76 74 0
77 75 76 0
-77 -75 0
-77 -76 0
78 71 -77 0
-78 -71 0
-78 77 0
119 1 35 0
-119 -1 0
-119 -35 0
120 1 119 0
-120 -1 0
-120 -119 0
121 2 120 0
-121 -2 0
-121 -120 0
122 2 121 0
-122 -2 0
-122 -121 0
123 -9 122 0
-123 9 0
-123 -122 0
124 9 -122 0
-124 -9 0
-124 122 0
125 123 124 0
-125 -123 0
-125 -124 0
126 3 -125 0
-126 -3 0
-126 125 0
127 3 126 0
-127 -3 0
-127 -126 0
147 -1 42 0
-147 1 0
-147 -42 0
152 -2 147 0
-152 2 0
-152 -147 0
153 -2 152 0
-153 2 0
-153 -152 0
154 -3 153 0
-154 3 0
-154 -153 0
155 -10 154 0
-155 10 0
-155 -154 0
156 10 -154 0
-156 -10 0
-156 154 0
157 155 156 0
-157 -155 0
-157 -156 0
158 -3 -157 0
-158 3 0
-158 157 0
195 71 74 0
-195 -71 0
-195 -74 0
196 3 122 0
-196 -3 0
-196 -122 0
197 3 196 0
-197 -3 0
-197 -196 0
198 -3 154 0
-198 3 0
-198 -154 0
199 78 -195 0
-199 -78 0
-199 195 0
200 -78 195 0
-200 78 0
-200 -195 0
201 199 200 0
-201 -199 0
-201 -200 0
202 127 -197 0
-202 -127 0
-202 197 0
203 -127 197 0
-203 127 0
-203 -197 0
204 202 203 0
-204 -202 0
-204 -203 0
205 158 -198 0
-205 -158 0
-205 198 0
206 -158 198 0
-206 158 0
-206 -198 0
207 205 206 0
-207 -205 0
-207 -206 0
208 -201 -204 0
-208 201 0
-208 204 0
209 -207 -208 0
-209 207 0
-209 208 0
11 209 0
-11 -209 0
11 0
